NAME : ppt20
COMMENT : 20-city problem
TYPE : TSP
DIMENSION : 20
EDGE_WEIGHT_TYPE : EUC_2D
NODE_COORD_SECTION
1 5.294 1.558
2 4.268 3.622
3 4.719 2.774
4 4.185 2.230
5 0.915 3.861
6 4.771 6.041
7 1.524 2.871
8 3.447 2.111
9 3.718 3.665
10 2.649 2.556
11 4.399 1.194
12 4.660 2.949
13 1.232 6.440
14 5.0361 0.244
15 2.710 3.140
16 1.072 3.454
17 5.855 6.203
18 0.194 1.862
19 1.762 2.693
20 2.682 6.097
EOF
